set Foods := Frozen_Broccoli
Carrots_Raw
Celery_Raw
Frozen_Corn
Lettuce_Iceberg_Raw
Peppers_Sweet_Raw
Potatoes_Baked
Tofu
Roasted_Chicken
Spaghetti_W_Sauce
Tomato_Red_Ripe_Raw
Apple_Raw_W_Skin
Banana
Grapes
Kiwifruit_Raw_Fresh
Oranges
Bagels
Wheat_Bread
White_Bread
Oatmeal_Cookies
Apple_Pie
Chocolate_Chip_Cookies
Butter_Regular
Cheddar_Cheese
3.3___Fat_Whole_Milk
2___Lowfat_Milk
Skim_Milk
Poached_Eggs
Scrambled_Eggs
Bologna_Turkey
Frankfurter__Beef
Ham_Sliced_Extralean
Kielbasa_Prk
Cap_N_Crunch
Cheerios
Corn_Flks__Kellogg_S
Raisin_Brn__Kellg_S
Rice_Krispies
Special_K
Oatmeal
Malt-O-Meal_Choc
Pizza_W_Pepperoni
Taco
Hamburger_W_Toppings
Hotdog__Plain
Couscous
White_Rice
Macaroni_Ckd
Peanut_Butter
Pork
Sardines_in_Oil
White_Tuna_in_Water
Popcorn_Air-Popped
Potato_Chips_Bbqflvr
Pretzels
Tortilla_Chip
Chicknoodl_Soup
Splt_Pea___Hamsoup
Vegetbeef_Soup
Neweng_Clamchwd
Tomato_Soup
New_E_Clamchwd_W_Mlk
Crm_Mshrm_Soup_W_Mlk
Beanbacn_Soup_W_Watr;



set Nutrients := 
Calories	Cholesterol	Total_Fat	Sodium	Carbohydrates	Dietary_Fiber	Protein	Vit_A	Vit_C	Calcium 	Iron;

param caloricMatrix:  Calories	Cholesterol	Total_Fat	Sodium	Carbohydrates	Dietary_Fiber	Protein	Vit_A	Vit_C	Calcium	Iron
:= 

Frozen_Broccoli	73.8	0	0.8	68.2	13.6	8.5	8	5867.4	160.2	159	2.3
Carrots_Raw	23.7	0	0.1	19.2	5.6	1.6	0.6	15471	5.1	14.9	0.3
Celery_Raw	6.4	0	0.1	34.8	1.5	0.7	0.3	53.6	2.8	16	0.2
Frozen_Corn	72.2	0	0.6	2.5	17.1	2	2.5	106.6	5.2	3.3	0.3
Lettuce_Iceberg_Raw	2.6	0	0	1.8	0.4	0.3	0.2	66	0.8	3.8	0.1
Peppers_Sweet_Raw	20	0	0.1	1.5	4.8	1.3	0.7	467.7	66.1	6.7	0.3
Potatoes_Baked	171.5	0	0.2	15.2	39.9	3.2	3.7	0	15.6	22.7	4.3
Tofu	88.2	0	5.5	8.1	2.2	1.4	9.4	98.6	0.1	121.8	6.2
Roasted_Chicken	277.4	129.9	10.8	125.6	0	0	42.2	77.4	0	21.9	1.8
Spaghetti_W_Sauce	358.2	0	12.3	1237.1	58.3	11.6	8.2	3055.2	27.9	80.2	2.3
Tomato_Red_Ripe_Raw	25.8	0	0.4	11.1	5.7	1.4	1	766.3	23.5	6.2	0.6
Apple_Raw_W_Skin	81.4	0	0.5	0	21	3.7	0.3	73.1	7.9	9.7	0.2
Banana	104.9	0	0.5	1.1	26.7	2.7	1.2	92.3	10.4	6.8	0.4
Grapes	15.1	0	0.1	0.5	4.1	0.2	0.2	24	1	3.4	0.1
Kiwifruit_Raw_Fresh	46.4	0	0.3	3.8	11.3	2.6	0.8	133	74.5	19.8	0.3
Oranges	61.6	0	0.2	0	15.4	3.1	1.2	268.6	69.7	52.4	0.1
Bagels	78	0	0.5	151.4	15.1	0.6	3	0	0	21	1
Wheat_Bread	65	0	1	134.5	12.4	1.3	2.2	0	0	10.8	0.7
White_Bread	65	0	1	132.5	11.8	1.1	2.3	0	0	26.2	0.8
Oatmeal_Cookies	81	0	3.3	68.9	12.4	0.6	1.1	2.9	0.1	6.7	0.5
Apple_Pie	67.2	0	3.1	75.4	9.6	0.5	0.5	35.2	0.9	3.1	0.1
Chocolate_Chip_Cookies	78.1	5.1	4.5	57.8	9.3	0	0.9	101.8	0	6.2	0.4
Butter_Regular	35.8	10.9	4.1	41.3	0	0	0	152.9	0	1.2	0
Cheddar_Cheese	112.7	29.4	9.3	173.7	0.4	0	7	296.5	0	202	0.2
3.3___Fat_Whole_Milk	149.9	33.2	8.1	119.6	11.4	0	8	307.4	2.3	291.3	0.1
2___Lowfat_Milk	121.2	18.3	4.7	121.8	11.7	0	8.1	500.2	2.3	296.7	0.1
Skim_Milk	85.5	4.4	0.4	126.2	11.9	0	8.4	499.8	2.4	302.3	0.1
Poached_Eggs	74.5	211.5	5	140	0.6	0	6.2	316	0	24.5	0.7
Scrambled_Eggs	99.6	211.2	7.3	168	1.3	0	6.7	409.2	0.1	42.6	0.7
Bologna_Turkey	56.4	28.1	4.3	248.9	0.3	0	3.9	0	0	23.8	0.4
Frankfurter__Beef	141.8	27.4	12.8	461.7	0.8	0	5.4	0	10.8	9	0.6
Ham_Sliced_Extralean	37.1	13.3	1.4	405.1	0.3	0	5.5	0	7.4	2	0.2
Kielbasa_Prk	80.6	17.4	7.1	279.8	0.6	0	3.4	0	5.5	11.4	0.4
Cap_N_Crunch	119.6	0	2.6	213.3	23	0.5	1.4	40.6	0	4.8	7.5
Cheerios	111	0	1.8	307.6	19.6	2	4.3	1252.2	15.1	48.6	4.5
Corn_Flks__Kellogg_S	110.5	0	0.1	290.5	24.5	0.7	2.3	1252.2	15.1	0.9	1.8
Raisin_Brn__Kellg_S	115.1	0	0.7	204.4	27.9	4	4	1250.2	0	12.9	16.8
Rice_Krispies	112.2	0	0.2	340.8	24.8	0.4	1.9	1252.2	15.1	4	1.8
Special_K	110.8	0	0.1	265.5	21.3	0.7	5.6	1252.2	15.1	8.2	4.5
Oatmeal	145.1	0	2.3	2.3	25.3	4	6.1	37.4	0	18.7	1.6
Malt-O-Meal_Choc	607.2	0	1.5	16.5	128.2	0	17.3	0	0	23.1	47.2
Pizza_W_Pepperoni	181	14.2	7	267	19.9	0	10.1	281.9	1.6	64.6	0.9
Taco	369.4	56.4	20.6	802	26.7	0	20.7	855	2.2	220.6	2.4
Hamburger_W_Toppings	275	42.8	10.2	563.9	32.7	0	13.6	126.3	2.6	51.4	2.5
Hotdog__Plain	242.1	44.1	14.5	670.3	18	0	10.4	0	0.1	23.5	2.3
Couscous	100.8	0	0.1	4.5	20.9	1.3	3.4	0	0	7.2	0.3
White_Rice	102.7	0	0.2	0.8	22.3	0.3	2.1	0	0	7.9	0.9
Macaroni_Ckd	98.7	0	0.5	0.7	19.8	0.9	3.3	0	0	4.9	1
Peanut_Butter	188.5	0	16	155.5	6.9	2.1	7.7	0	0	13.1	0.6
Pork	710.8	105.1	72.2	38.4	0	0	13.8	14.7	0	59.9	0.4
Sardines_in_Oil	49.9	34.1	2.7	121.2	0	0	5.9	53.8	0	91.7	0.7
White_Tuna_in_Water	115.6	35.7	2.1	333.2	0	0	22.7	68	0	3.4	0.5
Popcorn_Air-Popped	108.3	0	1.2	1.1	22.1	4.3	3.4	55.6	0	2.8	0.8
Potato_Chips_Bbqflvr	139.2	0	9.2	212.6	15	1.2	2.2	61.5	9.6	14.2	0.5
Pretzels	108	0	1	486.2	22.5	0.9	2.6	0	0	10.2	1.2
Tortilla_Chip	142	0	7.4	149.7	17.8	1.8	2	55.6	0	43.7	0.4
Chicknoodl_Soup	150.1	12.3	4.6	1862.2	18.7	1.5	7.9	1308.7	0	27.1	1.5
Splt_Pea___Hamsoup	184.8	7.2	4	964.8	26.8	4.1	11.1	4872	7	33.6	2.1
Vegetbeef_Soup	158.1	10	3.8	1915.1	20.4	4	11.2	3785.1	4.8	32.6	2.2
Neweng_Clamchwd	175.7	10	5	1864.9	21.8	1.5	10.9	20.1	4.8	82.8	2.8
Tomato_Soup	170.7	0	3.8	1744.4	33.2	1	4.1	1393	133	27.6	3.5
New_E_Clamchwd_W_Mlk	163.7	22.3	6.6	992	16.6	1.5	9.5	163.7	3.5	186	1.5
Crm_Mshrm_Soup_W_Mlk	203.4	19.8	13.6	1076.3	15	0.5	6.1	153.8	2.2	178.6	0.6
Beanbacn_Soup_W_Watr	172	2.5	5.9	951.3	22.8	8.6	7.9	888	1.5	81	2
;

## 1 column represents the lower bound and column 2  represents the upper  bnd

param bounds : 1 2 :=
Calories		2000	2250
Cholesterol		0	300
Total_Fat		0	65
Sodium			0       2400
Carbohydrates		0	300
Dietary_Fiber		25	100
Protein		50	100
Vit_A		5000	50000
Vit_C		50	20000
Calcium		800	1600
Iron		10	30;

param costs := Frozen_Broccoli	0.16
Carrots_Raw	0.07
Celery_Raw	0.04
Frozen_Corn	0.18
Lettuce_Iceberg_Raw	0.02
Peppers_Sweet_Raw	0.53
Potatoes_Baked	0.06
Tofu	0.31
Roasted_Chicken	0.84
Spaghetti_W_Sauce	0.78
Tomato_Red_Ripe_Raw	0.27
Apple_Raw_W_Skin	0.24
Banana	0.15
Grapes	0.32
Kiwifruit_Raw_Fresh	0.49
Oranges	0.15
Bagels	0.16
Wheat_Bread	0.05
White_Bread	0.06
Oatmeal_Cookies	0.09
Apple_Pie	0.16
Chocolate_Chip_Cookies	0.03
Butter_Regular	0.05
Cheddar_Cheese	0.25
3.3___Fat_Whole_Milk	0.16
2___Lowfat_Milk	0.23
Skim_Milk	0.13
Poached_Eggs	0.08
Scrambled_Eggs	0.11
Bologna_Turkey	0.15
Frankfurter__Beef	0.27
Ham_Sliced_Extralean	0.33
Kielbasa_Prk	0.15
Cap_N_Crunch	0.31
Cheerios	0.28
Corn_Flks__Kellogg_S	0.28
Raisin_Brn__Kellg_S	0.34
Rice_Krispies	0.32
Special_K	0.38
Oatmeal	0.82
Malt-O-Meal_Choc	0.52
Pizza_W_Pepperoni	0.44
Taco	0.59
Hamburger_W_Toppings	0.83
Hotdog__Plain	0.31
Couscous	0.39
White_Rice	0.08
Macaroni_Ckd	0.17
Peanut_Butter	0.07
Pork	0.81
Sardines_in_Oil	0.45
White_Tuna_in_Water	0.69
Popcorn_Air-Popped	0.04
Potato_Chips_Bbqflvr	0.22
Pretzels	0.12
Tortilla_Chip	0.19
Chicknoodl_Soup	0.39
Splt_Pea___Hamsoup	0.67
Vegetbeef_Soup	0.71
Neweng_Clamchwd	0.75
Tomato_Soup	0.39
New_E_Clamchwd_W_Mlk	0.99
Crm_Mshrm_Soup_W_Mlk	0.65
Beanbacn_Soup_W_Watr	0.67;


end;